(declare-fun temp13944_2 () (_ BitVec 64))
(declare-fun temp13944_1 () (_ BitVec 64))
(declare-fun temp13944_3 () (_ BitVec 64))
(declare-fun var460169 () (_ BitVec 64))
(declare-fun temp13944_4 () (_ BitVec 64))
(declare-fun var460170 () (_ BitVec 64))
(declare-fun temp13944_5 () (_ BitVec 64))
(declare-fun var984886 () (_ BitVec 64))
(declare-fun var1183964 () (_ BitVec 64))
(declare-fun temp13944_6 () (_ BitVec 64))
(declare-fun var1380695 () (_ BitVec 64))
(declare-fun temp13944_7 () (_ BitVec 64))
(declare-fun var1380696 () (_ BitVec 64))
(declare-fun temp13944_8 () (_ BitVec 64))
(declare-fun temp13944_9 () (_ BitVec 64))
(declare-fun var460297 () (_ BitVec 64))
(declare-fun k!0 () Bool)
(declare-fun ARGNAME_n_NAMEEND () (_ BitVec 64))
(declare-fun temp13944_10 () (_ BitVec 64))
(declare-fun ARGNAME_input_NAMEEND_DIM () (_ BitVec 64))
(declare-fun var1771499 () (_ BitVec 64))
(declare-fun temp13944_12 () (_ BitVec 64))
(declare-fun temp13944_11 () (_ BitVec 64))
(declare-fun var1837943 () (_ BitVec 64))
(declare-fun temp13944_13 () (_ BitVec 64))
(declare-fun var1904392 () (_ BitVec 64))
(declare-fun var1969937 () (_ BitVec 64))
(declare-fun temp13944_15 () (_ BitVec 64))
(declare-fun temp13944_14 () (_ BitVec 64))
(declare-fun temp13944_16 () (_ BitVec 64))
(declare-fun var2166519 () (_ BitVec 64))
(declare-fun temp13944_17 () (_ BitVec 64))
(declare-fun var1771546 () (_ BitVec 64))
(declare-fun temp13944_18 () (_ BitVec 64))
(declare-fun var1771551 () (_ BitVec 64))
(declare-fun temp13944_19 () (_ BitVec 64))
(declare-fun var1771553 () (_ BitVec 64))
(declare-fun temp13944_20 () (_ BitVec 64))
(declare-fun var2754766 () (_ BitVec 64))
(declare-fun temp13944_21 () (_ BitVec 64))
(declare-fun temp13944_22 () (_ BitVec 64))
(declare-fun var2754796 () (_ BitVec 64))
(declare-fun var2754843 () (_ BitVec 64))
(declare-fun var2754764 () (_ BitVec 64))
(declare-fun var460364 () (_ BitVec 64))
(declare-fun var460372 () (_ BitVec 64))
(declare-fun temp13944_23 () (_ BitVec 64))
(assert (= temp13944_2 #x0000000000000000))
(assert (= temp13944_1 temp13944_2))
(assert (= temp13944_3 #x0000000000000001))
(assert (= var460169 temp13944_3))
(assert (= temp13944_4 #x0000000000000001))
(assert (= var460170 temp13944_4))
(assert (= temp13944_5 #x0000000000000000))
(assert (= var984886 temp13944_5))
(assert (= var1183964 var984886))
(assert (= temp13944_6 #x0000000000000000))
(assert (= var1380695 temp13944_6))
(assert (= temp13944_7 #x0000000000000000))
(assert (= var1380696 temp13944_7))
(assert (= temp13944_8 #x0000000000000001))
(assert (= var460297
   (ite (bvslt ARGNAME_n_NAMEEND temp13944_8)
        #x0000000000000001
        #x0000000000000000)))
(assert (= temp13944_9 #x0000000000000000))
(assert (= var460297 temp13944_9))
(assert (= temp13944_10 #x0000000000000001))
(assert (= var1771499 (bvshl ARGNAME_input_NAMEEND_DIM temp13944_10)))
(assert (= temp13944_12 #x0000000000000000))
(assert (= temp13944_11 temp13944_12))
(assert (= var1837943 var1771499))
(assert (= temp13944_13 #x0000000000000005))
(assert (= var1904392 temp13944_13))
(assert (= var1969937 var1837943))
(assert (= temp13944_15 #x0000000000000000))
(assert (= temp13944_14 temp13944_15))
(assert (= temp13944_16 #x0000000000000000))
(assert (= var2166519 temp13944_16))
(assert (= temp13944_17 #x0000000000000000))
(assert (= var1771546 temp13944_17))
(assert (= temp13944_18 #x0000000000000001))
(assert (= var1771551 (bvand var1771546 temp13944_18)))
(assert (= temp13944_19 #x0000000000000000))
(assert (= var1771553
   (ite (= var1771551 temp13944_19) #x0000000000000001 #x0000000000000000)))
(assert (= temp13944_20 #x0000000000000001))
(assert (= var1771553 temp13944_20))
(assert (= var2754766 var460169))
(assert (= temp13944_21 #x0000000000000000))
(assert (= temp13944_22 #x0000000000000002))
(assert (= var2754796 (ite (= var2754766 #x0000000000000001) temp13944_21 temp13944_22)))
(assert (= var2754843 var2754796))
(assert (= var2754764 var2754843))
(assert (= var460364 var2754764))
(assert (= var460372 var460364))
(assert (= temp13944_23 #x0000000000000001))
(assert (= var460169 temp13944_23))
(model-add temp13944_2 () (_ BitVec 64) #x0000000000000000)
(model-add temp13944_1 () (_ BitVec 64) #x0000000000000000)
(model-add temp13944_3 () (_ BitVec 64) #x0000000000000001)
(model-add var460169 () (_ BitVec 64) #x0000000000000001)
(model-add temp13944_4 () (_ BitVec 64) #x0000000000000001)
(model-add var460170 () (_ BitVec 64) #x0000000000000001)
(model-add temp13944_5 () (_ BitVec 64) #x0000000000000000)
(model-add var984886 () (_ BitVec 64) #x0000000000000000)
(model-add var1183964 () (_ BitVec 64) #x0000000000000000)
(model-add temp13944_6 () (_ BitVec 64) #x0000000000000000)
(model-add var1380695 () (_ BitVec 64) #x0000000000000000)
(model-add temp13944_7 () (_ BitVec 64) #x0000000000000000)
(model-add var1380696 () (_ BitVec 64) #x0000000000000000)
(model-add temp13944_8 () (_ BitVec 64) #x0000000000000001)
(model-add temp13944_9 () (_ BitVec 64) #x0000000000000000)
(model-add var460297 () (_ BitVec 64) #x0000000000000000)
(model-del k!0)
(model-add ARGNAME_n_NAMEEND
           ()
           (_ BitVec 64)
           (ite (or k!0 (= #x0000000000000001 #x8000000000000000))
                #x0000000000000001
                (bvsub #x0000000000000001 #x0000000000000001)))





